<?xml version="1.0" encoding="UTF-8"?><osil xmlns="os.optimizationservices.org"   xmlns:xsi="http://www.w3.org/2001/XMLSchema-instance" xsi:schemaLocation="os.optimizationservices.org http://www.optimizationservices.org/schemas/2.0/OSiL.xsd" ><instanceHeader><name>q_20_4_75_4</name></instanceHeader><instanceData><variables numberOfVariables="20"><var name="x1" ub="1"/><var name="x2" ub="1"/><var name="x3" ub="1"/><var name="x4" ub="1"/><var name="x5" ub="1"/><var name="x6" ub="1"/><var name="x7" ub="1"/><var name="x8" ub="1"/><var name="x9" ub="1"/><var name="x10" ub="1"/><var name="x11" ub="1"/><var name="x12" ub="1"/><var name="x13" ub="1"/><var name="x14" ub="1"/><var name="x15" ub="1"/><var name="x16" ub="1"/><var name="x17" ub="1"/><var name="x18" ub="1"/><var name="x19" ub="1"/><var name="x20" ub="1"/></variables><objectives numberOfObjectives="1"><obj maxOrMin="min" name="defObj_x21" numberOfObjCoef="20"><coef idx="0">-.756</coef><coef idx="1">-.2826</coef><coef idx="2">-5.14e-2</coef><coef idx="3">-.7589</coef><coef idx="4">-.9586</coef><coef idx="5">7.1e-3</coef><coef idx="6">-.9469</coef><coef idx="7">-9.7e-3</coef><coef idx="8">-.6799</coef><coef idx="9">-.1562</coef><coef idx="10">-.903</coef><coef idx="11">.8956</coef><coef idx="12">-.6377</coef><coef idx="13">6.23e-2</coef><coef idx="14">-.5408</coef><coef idx="15">.9865</coef><coef idx="16">-.5984</coef><coef idx="17">.9369</coef><coef idx="18">.8646</coef><coef idx="19">.2468</coef></obj></objectives><constraints numberOfConstraints="4"><con name="e2" ub=".932"/><con name="e3" ub="79.471"/><con name="e4" ub="40.134"/><con name="e5" ub="91.104"/></constraints><linearConstraintCoefficients numberOfValues="80"><start><el mult="5" incr="20">0</el></start><colIdx><el mult="20" incr="1">0</el><el mult="20" incr="1">0</el><el mult="20" incr="1">0</el><el mult="20" incr="1">0</el></colIdx><value><el>.5022</el><el>.3228</el><el>.1633</el><el>.9017</el><el>.3344</el><el>7.07e-2</el><el>.6542</el><el>-5.03e-2</el><el>.4622</el><el>6.59e-2</el><el>.1075</el><el>.6404</el><el>-.9382</el><el>.6695</el><el>.4683</el><el>.2586</el><el>-.8063</el><el>-.5563</el><el>-.1988</el><el>.6008</el><el>.7655</el><el>-.3751</el><el>-.9375</el><el>.1722</el><el>.9625</el><el>-.104</el><el>2.44e-2</el><el>-.6325</el><el>-.4639</el><el>.1059</el><el>-.2745</el><el>.8564</el><el>-.5653</el><el>.5187</el><el>.2491</el><el>-.6465</el><el>-.2353</el><el>3.43e-2</el><el>7.52e-2</el><el>-.8944</el><el>-.5739</el><el>-.6995</el><el>2.42e-2</el><el>-.4462</el><el>.3482</el><el>.3343</el><el>5.05e-2</el><el>.4626</el><el>.2719</el><el>-.9273</el><el>.5019</el><el>-.4407</el><el>-.214</el><el>-.5117</el><el>3.64e-2</el><el>-.957</el><el>-.6156</el><el>.6705</el><el>-.5714</el><el>.6198</el><el>.7187</el><el>.212</el><el>-.7857</el><el>.2113</el><el>-.587</el><el>-1.6e-3</el><el>.8113</el><el>.2103</el><el>-.721</el><el>-.3228</el><el>-.5868</el><el>-.9445</el><el>-7.e-2</el><el>.8126</el><el>-.3954</el><el>-.575</el><el>-.5267</el><el>-.3536</el><el>.1759</el><el>-.3574</el></value></linearConstraintCoefficients><quadraticCoefficients  numberOfQuadraticTerms="550" ><qTerm  idx="-1"  idxOne="0"  idxTwo="0"  coef="-.6387"/><qTerm  idx="-1"  idxOne="0"  idxTwo="1"  coef=".8953"/><qTerm  idx="-1"  idxOne="0"  idxTwo="2"  coef=".3568"/><qTerm  idx="-1"  idxOne="0"  idxTwo="3"  coef=".3868"/><qTerm  idx="-1"  idxOne="0"  idxTwo="5"  coef="1.e-4"/><qTerm  idx="-1"  idxOne="0"  idxTwo="6"  coef=".3451"/><qTerm  idx="-1"  idxOne="0"  idxTwo="8"  coef=".3544"/><qTerm  idx="-1"  idxOne="0"  idxTwo="9"  coef=".8251"/><qTerm  idx="-1"  idxOne="0"  idxTwo="11"  coef=".9724"/><qTerm  idx="-1"  idxOne="0"  idxTwo="13"  coef=".4519"/><qTerm  idx="-1"  idxOne="0"  idxTwo="14"  coef=".8044"/><qTerm  idx="-1"  idxOne="0"  idxTwo="16"  coef=".2065"/><qTerm  idx="-1"  idxOne="0"  idxTwo="19"  coef=".8035"/><qTerm  idx="-1"  idxOne="1"  idxTwo="1"  coef=".7952"/><qTerm  idx="-1"  idxOne="1"  idxTwo="2"  coef=".1898"/><qTerm  idx="-1"  idxOne="1"  idxTwo="7"  coef=".3807"/><qTerm  idx="-1"  idxOne="1"  idxTwo="9"  coef=".515"/><qTerm  idx="-1"  idxOne="1"  idxTwo="11"  coef="-.9422"/><qTerm  idx="-1"  idxOne="1"  idxTwo="12"  coef=".8857"/><qTerm  idx="-1"  idxOne="1"  idxTwo="13"  coef=".111"/><qTerm  idx="-1"  idxOne="1"  idxTwo="14"  coef=".7327"/><qTerm  idx="-1"  idxOne="1"  idxTwo="15"  coef=".3707"/><qTerm  idx="-1"  idxOne="1"  idxTwo="16"  coef="-.7071"/><qTerm  idx="-1"  idxOne="1"  idxTwo="17"  coef=".2983"/><qTerm  idx="-1"  idxOne="1"  idxTwo="18"  coef="-.4011"/><qTerm  idx="-1"  idxOne="2"  idxTwo="2"  coef="-.3796"/><qTerm  idx="-1"  idxOne="2"  idxTwo="3"  coef="-1.59e-2"/><qTerm  idx="-1"  idxOne="2"  idxTwo="6"  coef="-.573"/><qTerm  idx="-1"  idxOne="2"  idxTwo="7"  coef="-.2382"/><qTerm  idx="-1"  idxOne="2"  idxTwo="8"  coef=".6875"/><qTerm  idx="-1"  idxOne="2"  idxTwo="9"  coef="8.88e-2"/><qTerm  idx="-1"  idxOne="2"  idxTwo="12"  coef=".4852"/><qTerm  idx="-1"  idxOne="2"  idxTwo="13"  coef="-.789"/><qTerm  idx="-1"  idxOne="2"  idxTwo="15"  coef="-.3882"/><qTerm  idx="-1"  idxOne="2"  idxTwo="16"  coef=".638"/><qTerm  idx="-1"  idxOne="2"  idxTwo="17"  coef=".9547"/><qTerm  idx="-1"  idxOne="2"  idxTwo="18"  coef=".4611"/><qTerm  idx="-1"  idxOne="2"  idxTwo="19"  coef=".2125"/><qTerm  idx="-1"  idxOne="3"  idxTwo="3"  coef="-6.8e-2"/><qTerm  idx="-1"  idxOne="3"  idxTwo="5"  coef="8.27e-2"/><qTerm  idx="-1"  idxOne="3"  idxTwo="7"  coef="-.5224"/><qTerm  idx="-1"  idxOne="3"  idxTwo="8"  coef=".2857"/><qTerm  idx="-1"  idxOne="3"  idxTwo="9"  coef="-.4035"/><qTerm  idx="-1"  idxOne="3"  idxTwo="11"  coef="-.9429"/><qTerm  idx="-1"  idxOne="3"  idxTwo="19"  coef="9.74e-2"/><qTerm  idx="-1"  idxOne="4"  idxTwo="7"  coef="-.1072"/><qTerm  idx="-1"  idxOne="4"  idxTwo="15"  coef=".4912"/><qTerm  idx="-1"  idxOne="4"  idxTwo="16"  coef="-.6237"/><qTerm  idx="-1"  idxOne="4"  idxTwo="19"  coef=".258"/><qTerm  idx="-1"  idxOne="5"  idxTwo="5"  coef=".8852"/><qTerm  idx="-1"  idxOne="5"  idxTwo="8"  coef="-.7195"/><qTerm  idx="-1"  idxOne="5"  idxTwo="10"  coef=".109"/><qTerm  idx="-1"  idxOne="5"  idxTwo="14"  coef="-.3064"/><qTerm  idx="-1"  idxOne="5"  idxTwo="15"  coef="-.8724"/><qTerm  idx="-1"  idxOne="5"  idxTwo="18"  coef=".6374"/><qTerm  idx="-1"  idxOne="5"  idxTwo="19"  coef=".6888"/><qTerm  idx="-1"  idxOne="6"  idxTwo="6"  coef=".7616"/><qTerm  idx="-1"  idxOne="6"  idxTwo="7"  coef=".3744"/><qTerm  idx="-1"  idxOne="6"  idxTwo="8"  coef=".2082"/><qTerm  idx="-1"  idxOne="6"  idxTwo="10"  coef="-.5429"/><qTerm  idx="-1"  idxOne="6"  idxTwo="13"  coef=".2575"/><qTerm  idx="-1"  idxOne="6"  idxTwo="15"  coef="8.83e-2"/><qTerm  idx="-1"  idxOne="7"  idxTwo="7"  coef=".2126"/><qTerm  idx="-1"  idxOne="7"  idxTwo="10"  coef="-.6942"/><qTerm  idx="-1"  idxOne="7"  idxTwo="11"  coef=".4579"/><qTerm  idx="-1"  idxOne="7"  idxTwo="12"  coef=".7387"/><qTerm  idx="-1"  idxOne="7"  idxTwo="13"  coef="-.7579"/><qTerm  idx="-1"  idxOne="7"  idxTwo="14"  coef="-4.95e-2"/><qTerm  idx="-1"  idxOne="7"  idxTwo="15"  coef=".6321"/><qTerm  idx="-1"  idxOne="7"  idxTwo="16"  coef="8.e-4"/><qTerm  idx="-1"  idxOne="7"  idxTwo="19"  coef="-.4398"/><qTerm  idx="-1"  idxOne="8"  idxTwo="8"  coef="-.2366"/><qTerm  idx="-1"  idxOne="8"  idxTwo="9"  coef="-.7161"/><qTerm  idx="-1"  idxOne="8"  idxTwo="10"  coef=".9478"/><qTerm  idx="-1"  idxOne="8"  idxTwo="13"  coef="-.5196"/><qTerm  idx="-1"  idxOne="8"  idxTwo="16"  coef="4.2e-3"/><qTerm  idx="-1"  idxOne="8"  idxTwo="18"  coef="6.51e-2"/><qTerm  idx="-1"  idxOne="8"  idxTwo="19"  coef=".4006"/><qTerm  idx="-1"  idxOne="9"  idxTwo="9"  coef="-.9599"/><qTerm  idx="-1"  idxOne="9"  idxTwo="10"  coef=".3718"/><qTerm  idx="-1"  idxOne="9"  idxTwo="11"  coef=".1411"/><qTerm  idx="-1"  idxOne="9"  idxTwo="14"  coef=".2001"/><qTerm  idx="-1"  idxOne="9"  idxTwo="16"  coef=".8509"/><qTerm  idx="-1"  idxOne="9"  idxTwo="17"  coef="-.4025"/><qTerm  idx="-1"  idxOne="9"  idxTwo="19"  coef=".7677"/><qTerm  idx="-1"  idxOne="10"  idxTwo="13"  coef=".4991"/><qTerm  idx="-1"  idxOne="10"  idxTwo="14"  coef="-.4967"/><qTerm  idx="-1"  idxOne="10"  idxTwo="18"  coef=".1541"/><qTerm  idx="-1"  idxOne="10"  idxTwo="19"  coef=".7379"/><qTerm  idx="-1"  idxOne="11"  idxTwo="11"  coef="-.3782"/><qTerm  idx="-1"  idxOne="11"  idxTwo="16"  coef=".5223"/><qTerm  idx="-1"  idxOne="11"  idxTwo="17"  coef=".9067"/><qTerm  idx="-1"  idxOne="11"  idxTwo="19"  coef=".2293"/><qTerm  idx="-1"  idxOne="12"  idxTwo="12"  coef=".4676"/><qTerm  idx="-1"  idxOne="12"  idxTwo="19"  coef="-.733"/><qTerm  idx="-1"  idxOne="13"  idxTwo="13"  coef="-.1891"/><qTerm  idx="-1"  idxOne="13"  idxTwo="16"  coef=".9632"/><qTerm  idx="-1"  idxOne="14"  idxTwo="14"  coef="3.81e-2"/><qTerm  idx="-1"  idxOne="14"  idxTwo="15"  coef=".8914"/><qTerm  idx="-1"  idxOne="14"  idxTwo="17"  coef="-.4873"/><qTerm  idx="-1"  idxOne="14"  idxTwo="19"  coef=".7907"/><qTerm  idx="-1"  idxOne="15"  idxTwo="15"  coef="-.7313"/><qTerm  idx="-1"  idxOne="15"  idxTwo="17"  coef="-.7602"/><qTerm  idx="-1"  idxOne="15"  idxTwo="19"  coef=".5532"/><qTerm  idx="-1"  idxOne="16"  idxTwo="18"  coef="-.6629"/><qTerm  idx="-1"  idxOne="17"  idxTwo="17"  coef=".8645"/><qTerm  idx="-1"  idxOne="17"  idxTwo="19"  coef="-6.2e-3"/><qTerm  idx="-1"  idxOne="18"  idxTwo="18"  coef="-.2134"/><qTerm  idx="-1"  idxOne="18"  idxTwo="19"  coef="-.8591"/><qTerm  idx="-1"  idxOne="19"  idxTwo="19"  coef=".1544"/><qTerm  idx="0"  idxOne="0"  idxTwo="0"  coef="-.5167"/><qTerm  idx="0"  idxOne="0"  idxTwo="1"  coef=".7802"/><qTerm  idx="0"  idxOne="0"  idxTwo="3"  coef=".2428"/><qTerm  idx="0"  idxOne="0"  idxTwo="4"  coef=".426"/><qTerm  idx="0"  idxOne="0"  idxTwo="5"  coef=".5916"/><qTerm  idx="0"  idxOne="0"  idxTwo="6"  coef=".6954"/><qTerm  idx="0"  idxOne="0"  idxTwo="7"  coef=".8914"/><qTerm  idx="0"  idxOne="0"  idxTwo="8"  coef=".8239"/><qTerm  idx="0"  idxOne="0"  idxTwo="9"  coef=".3587"/><qTerm  idx="0"  idxOne="0"  idxTwo="11"  coef="-.6082"/><qTerm  idx="0"  idxOne="0"  idxTwo="14"  coef="-.6576"/><qTerm  idx="0"  idxOne="0"  idxTwo="15"  coef="-.6347"/><qTerm  idx="0"  idxOne="0"  idxTwo="16"  coef="-.4948"/><qTerm  idx="0"  idxOne="0"  idxTwo="18"  coef="-.6727"/><qTerm  idx="0"  idxOne="1"  idxTwo="1"  coef="3.73e-2"/><qTerm  idx="0"  idxOne="1"  idxTwo="3"  coef="-.8048"/><qTerm  idx="0"  idxOne="1"  idxTwo="4"  coef=".3787"/><qTerm  idx="0"  idxOne="1"  idxTwo="6"  coef="-.8016"/><qTerm  idx="0"  idxOne="1"  idxTwo="10"  coef="-.242"/><qTerm  idx="0"  idxOne="1"  idxTwo="11"  coef=".8122"/><qTerm  idx="0"  idxOne="1"  idxTwo="15"  coef="-.7342"/><qTerm  idx="0"  idxOne="1"  idxTwo="16"  coef=".7496"/><qTerm  idx="0"  idxOne="1"  idxTwo="19"  coef="-.2772"/><qTerm  idx="0"  idxOne="2"  idxTwo="2"  coef="-.7365"/><qTerm  idx="0"  idxOne="2"  idxTwo="4"  coef="-.9665"/><qTerm  idx="0"  idxOne="2"  idxTwo="6"  coef=".4391"/><qTerm  idx="0"  idxOne="2"  idxTwo="7"  coef=".5016"/><qTerm  idx="0"  idxOne="2"  idxTwo="8"  coef="-.7832"/><qTerm  idx="0"  idxOne="2"  idxTwo="12"  coef=".56"/><qTerm  idx="0"  idxOne="2"  idxTwo="13"  coef=".7463"/><qTerm  idx="0"  idxOne="2"  idxTwo="14"  coef=".4563"/><qTerm  idx="0"  idxOne="3"  idxTwo="4"  coef=".1012"/><qTerm  idx="0"  idxOne="3"  idxTwo="7"  coef="-.5311"/><qTerm  idx="0"  idxOne="3"  idxTwo="10"  coef=".6508"/><qTerm  idx="0"  idxOne="3"  idxTwo="11"  coef=".385"/><qTerm  idx="0"  idxOne="3"  idxTwo="12"  coef="-.5726"/><qTerm  idx="0"  idxOne="3"  idxTwo="16"  coef=".261"/><qTerm  idx="0"  idxOne="3"  idxTwo="17"  coef="-.5473"/><qTerm  idx="0"  idxOne="3"  idxTwo="18"  coef="-.2536"/><qTerm  idx="0"  idxOne="3"  idxTwo="19"  coef="-.9189"/><qTerm  idx="0"  idxOne="4"  idxTwo="7"  coef="-.6963"/><qTerm  idx="0"  idxOne="4"  idxTwo="8"  coef=".4"/><qTerm  idx="0"  idxOne="4"  idxTwo="9"  coef="4.14e-2"/><qTerm  idx="0"  idxOne="4"  idxTwo="12"  coef="-.2907"/><qTerm  idx="0"  idxOne="4"  idxTwo="15"  coef="4.46e-2"/><qTerm  idx="0"  idxOne="4"  idxTwo="16"  coef="-.7375"/><qTerm  idx="0"  idxOne="4"  idxTwo="17"  coef=".2151"/><qTerm  idx="0"  idxOne="4"  idxTwo="19"  coef=".563"/><qTerm  idx="0"  idxOne="5"  idxTwo="5"  coef="-.7068"/><qTerm  idx="0"  idxOne="5"  idxTwo="6"  coef=".3817"/><qTerm  idx="0"  idxOne="5"  idxTwo="8"  coef="5.79e-2"/><qTerm  idx="0"  idxOne="5"  idxTwo="11"  coef="-.3878"/><qTerm  idx="0"  idxOne="5"  idxTwo="17"  coef="-.456"/><qTerm  idx="0"  idxOne="5"  idxTwo="18"  coef="-.1266"/><qTerm  idx="0"  idxOne="6"  idxTwo="6"  coef="-.6643"/><qTerm  idx="0"  idxOne="6"  idxTwo="7"  coef="-.5231"/><qTerm  idx="0"  idxOne="6"  idxTwo="9"  coef=".5156"/><qTerm  idx="0"  idxOne="6"  idxTwo="11"  coef="-.5479"/><qTerm  idx="0"  idxOne="6"  idxTwo="15"  coef=".4946"/><qTerm  idx="0"  idxOne="6"  idxTwo="16"  coef=".8766"/><qTerm  idx="0"  idxOne="6"  idxTwo="19"  coef=".9412"/><qTerm  idx="0"  idxOne="7"  idxTwo="7"  coef="-.3814"/><qTerm  idx="0"  idxOne="7"  idxTwo="8"  coef=".4317"/><qTerm  idx="0"  idxOne="7"  idxTwo="9"  coef=".7855"/><qTerm  idx="0"  idxOne="7"  idxTwo="12"  coef="-.9883"/><qTerm  idx="0"  idxOne="7"  idxTwo="13"  coef="-.4354"/><qTerm  idx="0"  idxOne="7"  idxTwo="14"  coef="-6.87e-2"/><qTerm  idx="0"  idxOne="7"  idxTwo="16"  coef="-.9643"/><qTerm  idx="0"  idxOne="7"  idxTwo="19"  coef=".7034"/><qTerm  idx="0"  idxOne="8"  idxTwo="8"  coef="-.4064"/><qTerm  idx="0"  idxOne="8"  idxTwo="10"  coef="-.2343"/><qTerm  idx="0"  idxOne="8"  idxTwo="12"  coef="-.6763"/><qTerm  idx="0"  idxOne="8"  idxTwo="17"  coef=".6846"/><qTerm  idx="0"  idxOne="8"  idxTwo="19"  coef=".9334"/><qTerm  idx="0"  idxOne="9"  idxTwo="9"  coef="-.6254"/><qTerm  idx="0"  idxOne="9"  idxTwo="12"  coef=".9348"/><qTerm  idx="0"  idxOne="9"  idxTwo="13"  coef="-.6663"/><qTerm  idx="0"  idxOne="9"  idxTwo="14"  coef="-.6413"/><qTerm  idx="0"  idxOne="9"  idxTwo="15"  coef="-.2235"/><qTerm  idx="0"  idxOne="9"  idxTwo="17"  coef=".8645"/><qTerm  idx="0"  idxOne="9"  idxTwo="19"  coef="-.6643"/><qTerm  idx="0"  idxOne="10"  idxTwo="10"  coef="-.1999"/><qTerm  idx="0"  idxOne="10"  idxTwo="15"  coef="-.7258"/><qTerm  idx="0"  idxOne="10"  idxTwo="17"  coef="-.7233"/><qTerm  idx="0"  idxOne="10"  idxTwo="18"  coef=".7456"/><qTerm  idx="0"  idxOne="10"  idxTwo="19"  coef=".4285"/><qTerm  idx="0"  idxOne="11"  idxTwo="13"  coef="-.7403"/><qTerm  idx="0"  idxOne="11"  idxTwo="14"  coef="-2.19e-2"/><qTerm  idx="0"  idxOne="11"  idxTwo="15"  coef=".3124"/><qTerm  idx="0"  idxOne="11"  idxTwo="19"  coef="-.4897"/><qTerm  idx="0"  idxOne="12"  idxTwo="13"  coef="-.3725"/><qTerm  idx="0"  idxOne="12"  idxTwo="14"  coef="-5.49e-2"/><qTerm  idx="0"  idxOne="13"  idxTwo="13"  coef="-.6272"/><qTerm  idx="0"  idxOne="13"  idxTwo="16"  coef="-.5046"/><qTerm  idx="0"  idxOne="13"  idxTwo="17"  coef="-.9397"/><qTerm  idx="0"  idxOne="13"  idxTwo="18"  coef=".2058"/><qTerm  idx="0"  idxOne="13"  idxTwo="19"  coef=".9399"/><qTerm  idx="0"  idxOne="14"  idxTwo="14"  coef=".361"/><qTerm  idx="0"  idxOne="14"  idxTwo="15"  coef="1.7e-2"/><qTerm  idx="0"  idxOne="14"  idxTwo="16"  coef=".6321"/><qTerm  idx="0"  idxOne="14"  idxTwo="17"  coef="-9.24e-2"/><qTerm  idx="0"  idxOne="15"  idxTwo="18"  coef=".5396"/><qTerm  idx="0"  idxOne="15"  idxTwo="19"  coef="-.8179"/><qTerm  idx="0"  idxOne="16"  idxTwo="16"  coef=".5916"/><qTerm  idx="0"  idxOne="16"  idxTwo="19"  coef="-.174"/><qTerm  idx="0"  idxOne="17"  idxTwo="17"  coef="-.7632"/><qTerm  idx="0"  idxOne="17"  idxTwo="19"  coef=".4464"/><qTerm  idx="0"  idxOne="18"  idxTwo="18"  coef=".3816"/><qTerm  idx="0"  idxOne="18"  idxTwo="19"  coef=".8258"/><qTerm  idx="0"  idxOne="19"  idxTwo="19"  coef=".6814"/><qTerm  idx="1"  idxOne="0"  idxTwo="0"  coef=".1747"/><qTerm  idx="1"  idxOne="0"  idxTwo="2"  coef=".7777"/><qTerm  idx="1"  idxOne="0"  idxTwo="3"  coef="-.7912"/><qTerm  idx="1"  idxOne="0"  idxTwo="4"  coef=".8751"/><qTerm  idx="1"  idxOne="0"  idxTwo="6"  coef="-.7533"/><qTerm  idx="1"  idxOne="0"  idxTwo="9"  coef="-.3339"/><qTerm  idx="1"  idxOne="0"  idxTwo="11"  coef="-.9514"/><qTerm  idx="1"  idxOne="0"  idxTwo="13"  coef=".2213"/><qTerm  idx="1"  idxOne="0"  idxTwo="14"  coef=".8273"/><qTerm  idx="1"  idxOne="0"  idxTwo="15"  coef=".6502"/><qTerm  idx="1"  idxOne="0"  idxTwo="18"  coef=".5733"/><qTerm  idx="1"  idxOne="0"  idxTwo="19"  coef="-.674"/><qTerm  idx="1"  idxOne="1"  idxTwo="1"  coef="-.53"/><qTerm  idx="1"  idxOne="1"  idxTwo="2"  coef="-.7951"/><qTerm  idx="1"  idxOne="1"  idxTwo="8"  coef=".5705"/><qTerm  idx="1"  idxOne="1"  idxTwo="10"  coef="-.7144"/><qTerm  idx="1"  idxOne="1"  idxTwo="11"  coef="-.137"/><qTerm  idx="1"  idxOne="1"  idxTwo="12"  coef=".3128"/><qTerm  idx="1"  idxOne="1"  idxTwo="13"  coef=".1111"/><qTerm  idx="1"  idxOne="1"  idxTwo="14"  coef=".6411"/><qTerm  idx="1"  idxOne="1"  idxTwo="17"  coef="-.1264"/><qTerm  idx="1"  idxOne="2"  idxTwo="2"  coef="-.4205"/><qTerm  idx="1"  idxOne="2"  idxTwo="7"  coef=".2327"/><qTerm  idx="1"  idxOne="2"  idxTwo="9"  coef=".4034"/><qTerm  idx="1"  idxOne="2"  idxTwo="10"  coef=".4531"/><qTerm  idx="1"  idxOne="2"  idxTwo="14"  coef=".2786"/><qTerm  idx="1"  idxOne="2"  idxTwo="15"  coef=".5105"/><qTerm  idx="1"  idxOne="2"  idxTwo="16"  coef="5.8e-3"/><qTerm  idx="1"  idxOne="2"  idxTwo="18"  coef="-2.51e-2"/><qTerm  idx="1"  idxOne="2"  idxTwo="19"  coef="1.89e-2"/><qTerm  idx="1"  idxOne="3"  idxTwo="3"  coef="-4.67e-2"/><qTerm  idx="1"  idxOne="3"  idxTwo="4"  coef=".8008"/><qTerm  idx="1"  idxOne="3"  idxTwo="5"  coef=".3626"/><qTerm  idx="1"  idxOne="3"  idxTwo="6"  coef="-.4023"/><qTerm  idx="1"  idxOne="3"  idxTwo="9"  coef=".3196"/><qTerm  idx="1"  idxOne="3"  idxTwo="11"  coef=".1292"/><qTerm  idx="1"  idxOne="3"  idxTwo="13"  coef="-.345"/><qTerm  idx="1"  idxOne="3"  idxTwo="17"  coef="-.9455"/><qTerm  idx="1"  idxOne="3"  idxTwo="18"  coef=".6196"/><qTerm  idx="1"  idxOne="3"  idxTwo="19"  coef="-.3309"/><qTerm  idx="1"  idxOne="4"  idxTwo="4"  coef="-.6374"/><qTerm  idx="1"  idxOne="4"  idxTwo="5"  coef="-.6004"/><qTerm  idx="1"  idxOne="4"  idxTwo="8"  coef="8.82e-2"/><qTerm  idx="1"  idxOne="4"  idxTwo="12"  coef=".9549"/><qTerm  idx="1"  idxOne="4"  idxTwo="13"  coef="-.6273"/><qTerm  idx="1"  idxOne="4"  idxTwo="17"  coef=".182"/><qTerm  idx="1"  idxOne="4"  idxTwo="18"  coef="-.4531"/><qTerm  idx="1"  idxOne="4"  idxTwo="19"  coef="-.1208"/><qTerm  idx="1"  idxOne="5"  idxTwo="5"  coef=".8046"/><qTerm  idx="1"  idxOne="5"  idxTwo="6"  coef="-.794"/><qTerm  idx="1"  idxOne="5"  idxTwo="7"  coef=".8876"/><qTerm  idx="1"  idxOne="5"  idxTwo="9"  coef="-.7547"/><qTerm  idx="1"  idxOne="5"  idxTwo="10"  coef="-.7755"/><qTerm  idx="1"  idxOne="5"  idxTwo="12"  coef="-.6487"/><qTerm  idx="1"  idxOne="5"  idxTwo="13"  coef=".8219"/><qTerm  idx="1"  idxOne="5"  idxTwo="15"  coef="-.939"/><qTerm  idx="1"  idxOne="5"  idxTwo="16"  coef="-.6507"/><qTerm  idx="1"  idxOne="5"  idxTwo="17"  coef="-.2498"/><qTerm  idx="1"  idxOne="5"  idxTwo="19"  coef="-.1048"/><qTerm  idx="1"  idxOne="6"  idxTwo="6"  coef="8.75e-2"/><qTerm  idx="1"  idxOne="6"  idxTwo="12"  coef="-.2541"/><qTerm  idx="1"  idxOne="6"  idxTwo="13"  coef="-.2915"/><qTerm  idx="1"  idxOne="6"  idxTwo="14"  coef=".49"/><qTerm  idx="1"  idxOne="6"  idxTwo="15"  coef="-.3685"/><qTerm  idx="1"  idxOne="6"  idxTwo="17"  coef=".5508"/><qTerm  idx="1"  idxOne="6"  idxTwo="19"  coef="-.3432"/><qTerm  idx="1"  idxOne="7"  idxTwo="9"  coef="-.8968"/><qTerm  idx="1"  idxOne="7"  idxTwo="10"  coef="-.9094"/><qTerm  idx="1"  idxOne="7"  idxTwo="12"  coef=".1387"/><qTerm  idx="1"  idxOne="7"  idxTwo="13"  coef="-.5574"/><qTerm  idx="1"  idxOne="7"  idxTwo="15"  coef=".8792"/><qTerm  idx="1"  idxOne="7"  idxTwo="18"  coef="-.2314"/><qTerm  idx="1"  idxOne="8"  idxTwo="10"  coef="-.4063"/><qTerm  idx="1"  idxOne="8"  idxTwo="11"  coef=".2312"/><qTerm  idx="1"  idxOne="8"  idxTwo="13"  coef="-.9366"/><qTerm  idx="1"  idxOne="8"  idxTwo="14"  coef=".6531"/><qTerm  idx="1"  idxOne="9"  idxTwo="10"  coef="-.3668"/><qTerm  idx="1"  idxOne="9"  idxTwo="14"  coef=".4111"/><qTerm  idx="1"  idxOne="9"  idxTwo="15"  coef=".6731"/><qTerm  idx="1"  idxOne="9"  idxTwo="17"  coef=".5564"/><qTerm  idx="1"  idxOne="9"  idxTwo="19"  coef="-.2401"/><qTerm  idx="1"  idxOne="10"  idxTwo="10"  coef=".6451"/><qTerm  idx="1"  idxOne="10"  idxTwo="13"  coef="-.1355"/><qTerm  idx="1"  idxOne="10"  idxTwo="16"  coef="-6.8e-3"/><qTerm  idx="1"  idxOne="10"  idxTwo="18"  coef="-.6715"/><qTerm  idx="1"  idxOne="11"  idxTwo="12"  coef="-4.53e-2"/><qTerm  idx="1"  idxOne="11"  idxTwo="13"  coef=".5161"/><qTerm  idx="1"  idxOne="11"  idxTwo="14"  coef=".844"/><qTerm  idx="1"  idxOne="11"  idxTwo="17"  coef="-.6752"/><qTerm  idx="1"  idxOne="12"  idxTwo="12"  coef=".1329"/><qTerm  idx="1"  idxOne="12"  idxTwo="13"  coef=".4734"/><qTerm  idx="1"  idxOne="12"  idxTwo="15"  coef="-5.58e-2"/><qTerm  idx="1"  idxOne="12"  idxTwo="16"  coef=".7392"/><qTerm  idx="1"  idxOne="12"  idxTwo="17"  coef=".2092"/><qTerm  idx="1"  idxOne="13"  idxTwo="16"  coef=".7007"/><qTerm  idx="1"  idxOne="13"  idxTwo="17"  coef=".4583"/><qTerm  idx="1"  idxOne="14"  idxTwo="16"  coef=".9127"/><qTerm  idx="1"  idxOne="14"  idxTwo="18"  coef="-.7508"/><qTerm  idx="1"  idxOne="14"  idxTwo="19"  coef="-.4758"/><qTerm  idx="1"  idxOne="15"  idxTwo="15"  coef=".7285"/><qTerm  idx="1"  idxOne="15"  idxTwo="18"  coef=".9056"/><qTerm  idx="1"  idxOne="16"  idxTwo="16"  coef=".9032"/><qTerm  idx="1"  idxOne="16"  idxTwo="17"  coef="-.4735"/><qTerm  idx="1"  idxOne="16"  idxTwo="18"  coef=".7171"/><qTerm  idx="1"  idxOne="16"  idxTwo="19"  coef="-.3948"/><qTerm  idx="1"  idxOne="17"  idxTwo="18"  coef=".4252"/><qTerm  idx="1"  idxOne="17"  idxTwo="19"  coef=".8443"/><qTerm  idx="1"  idxOne="18"  idxTwo="18"  coef=".9576"/><qTerm  idx="1"  idxOne="18"  idxTwo="19"  coef=".7579"/><qTerm  idx="1"  idxOne="19"  idxTwo="19"  coef=".8637"/><qTerm  idx="2"  idxOne="0"  idxTwo="0"  coef="-.4329"/><qTerm  idx="2"  idxOne="0"  idxTwo="2"  coef=".6863"/><qTerm  idx="2"  idxOne="0"  idxTwo="5"  coef=".4901"/><qTerm  idx="2"  idxOne="0"  idxTwo="6"  coef="-.4103"/><qTerm  idx="2"  idxOne="0"  idxTwo="7"  coef=".3792"/><qTerm  idx="2"  idxOne="0"  idxTwo="8"  coef="-.7852"/><qTerm  idx="2"  idxOne="0"  idxTwo="9"  coef=".3661"/><qTerm  idx="2"  idxOne="0"  idxTwo="10"  coef="-.4386"/><qTerm  idx="2"  idxOne="0"  idxTwo="12"  coef="-.2315"/><qTerm  idx="2"  idxOne="0"  idxTwo="13"  coef=".4227"/><qTerm  idx="2"  idxOne="0"  idxTwo="14"  coef=".2241"/><qTerm  idx="2"  idxOne="0"  idxTwo="15"  coef="-.1825"/><qTerm  idx="2"  idxOne="0"  idxTwo="16"  coef="-.4632"/><qTerm  idx="2"  idxOne="0"  idxTwo="18"  coef="-.6035"/><qTerm  idx="2"  idxOne="0"  idxTwo="19"  coef=".1008"/><qTerm  idx="2"  idxOne="1"  idxTwo="5"  coef=".9895"/><qTerm  idx="2"  idxOne="1"  idxTwo="6"  coef="-.9036"/><qTerm  idx="2"  idxOne="1"  idxTwo="8"  coef="-.6317"/><qTerm  idx="2"  idxOne="1"  idxTwo="9"  coef=".4729"/><qTerm  idx="2"  idxOne="1"  idxTwo="10"  coef="-.559"/><qTerm  idx="2"  idxOne="1"  idxTwo="11"  coef=".7571"/><qTerm  idx="2"  idxOne="1"  idxTwo="12"  coef="-.2198"/><qTerm  idx="2"  idxOne="1"  idxTwo="13"  coef=".9797"/><qTerm  idx="2"  idxOne="1"  idxTwo="14"  coef="-6.95e-2"/><qTerm  idx="2"  idxOne="1"  idxTwo="18"  coef=".3148"/><qTerm  idx="2"  idxOne="1"  idxTwo="19"  coef=".3282"/><qTerm  idx="2"  idxOne="2"  idxTwo="2"  coef="7.42e-2"/><qTerm  idx="2"  idxOne="2"  idxTwo="5"  coef="-.5517"/><qTerm  idx="2"  idxOne="2"  idxTwo="7"  coef="-.8655"/><qTerm  idx="2"  idxOne="2"  idxTwo="9"  coef="-.5276"/><qTerm  idx="2"  idxOne="2"  idxTwo="10"  coef=".1205"/><qTerm  idx="2"  idxOne="2"  idxTwo="11"  coef=".5673"/><qTerm  idx="2"  idxOne="2"  idxTwo="15"  coef="-.4733"/><qTerm  idx="2"  idxOne="2"  idxTwo="17"  coef=".9339"/><qTerm  idx="2"  idxOne="2"  idxTwo="18"  coef="-.2615"/><qTerm  idx="2"  idxOne="2"  idxTwo="19"  coef="-.8921"/><qTerm  idx="2"  idxOne="3"  idxTwo="4"  coef="-.9045"/><qTerm  idx="2"  idxOne="3"  idxTwo="5"  coef=".1383"/><qTerm  idx="2"  idxOne="3"  idxTwo="7"  coef="-.7392"/><qTerm  idx="2"  idxOne="3"  idxTwo="8"  coef="-.5785"/><qTerm  idx="2"  idxOne="3"  idxTwo="9"  coef="-.8913"/><qTerm  idx="2"  idxOne="3"  idxTwo="14"  coef="-.1961"/><qTerm  idx="2"  idxOne="3"  idxTwo="18"  coef=".425"/><qTerm  idx="2"  idxOne="3"  idxTwo="19"  coef="6.11e-2"/><qTerm  idx="2"  idxOne="4"  idxTwo="4"  coef="-.767"/><qTerm  idx="2"  idxOne="4"  idxTwo="5"  coef="-.5925"/><qTerm  idx="2"  idxOne="4"  idxTwo="6"  coef="-.5909"/><qTerm  idx="2"  idxOne="4"  idxTwo="7"  coef=".2244"/><qTerm  idx="2"  idxOne="4"  idxTwo="8"  coef="2.29e-2"/><qTerm  idx="2"  idxOne="4"  idxTwo="11"  coef="-.4235"/><qTerm  idx="2"  idxOne="4"  idxTwo="13"  coef="6.1e-2"/><qTerm  idx="2"  idxOne="4"  idxTwo="15"  coef="-.6407"/><qTerm  idx="2"  idxOne="4"  idxTwo="16"  coef="-.801"/><qTerm  idx="2"  idxOne="4"  idxTwo="19"  coef="8.97e-2"/><qTerm  idx="2"  idxOne="5"  idxTwo="6"  coef="-.6056"/><qTerm  idx="2"  idxOne="5"  idxTwo="8"  coef=".8974"/><qTerm  idx="2"  idxOne="5"  idxTwo="10"  coef=".7053"/><qTerm  idx="2"  idxOne="5"  idxTwo="11"  coef="-9.32e-2"/><qTerm  idx="2"  idxOne="5"  idxTwo="12"  coef=".6822"/><qTerm  idx="2"  idxOne="5"  idxTwo="17"  coef=".5184"/><qTerm  idx="2"  idxOne="5"  idxTwo="19"  coef=".6262"/><qTerm  idx="2"  idxOne="6"  idxTwo="6"  coef="-.7109"/><qTerm  idx="2"  idxOne="6"  idxTwo="7"  coef=".323"/><qTerm  idx="2"  idxOne="6"  idxTwo="9"  coef="-.321"/><qTerm  idx="2"  idxOne="6"  idxTwo="11"  coef="-2.44e-2"/><qTerm  idx="2"  idxOne="6"  idxTwo="15"  coef="9.99e-2"/><qTerm  idx="2"  idxOne="6"  idxTwo="17"  coef="-.642"/><qTerm  idx="2"  idxOne="6"  idxTwo="19"  coef="-.5983"/><qTerm  idx="2"  idxOne="7"  idxTwo="7"  coef="4.95e-2"/><qTerm  idx="2"  idxOne="7"  idxTwo="10"  coef=".4789"/><qTerm  idx="2"  idxOne="7"  idxTwo="11"  coef=".3427"/><qTerm  idx="2"  idxOne="7"  idxTwo="12"  coef="-.2211"/><qTerm  idx="2"  idxOne="7"  idxTwo="14"  coef=".82"/><qTerm  idx="2"  idxOne="7"  idxTwo="19"  coef="-.8025"/><qTerm  idx="2"  idxOne="8"  idxTwo="8"  coef="7.41e-2"/><qTerm  idx="2"  idxOne="8"  idxTwo="9"  coef=".6985"/><qTerm  idx="2"  idxOne="8"  idxTwo="10"  coef="-6.56e-2"/><qTerm  idx="2"  idxOne="8"  idxTwo="12"  coef=".2794"/><qTerm  idx="2"  idxOne="8"  idxTwo="13"  coef="-.4231"/><qTerm  idx="2"  idxOne="8"  idxTwo="14"  coef="6.e-4"/><qTerm  idx="2"  idxOne="8"  idxTwo="15"  coef="-.3288"/><qTerm  idx="2"  idxOne="9"  idxTwo="9"  coef="-.1795"/><qTerm  idx="2"  idxOne="9"  idxTwo="14"  coef=".6345"/><qTerm  idx="2"  idxOne="9"  idxTwo="15"  coef="-.7073"/><qTerm  idx="2"  idxOne="9"  idxTwo="16"  coef=".275"/><qTerm  idx="2"  idxOne="10"  idxTwo="11"  coef="-.4026"/><qTerm  idx="2"  idxOne="10"  idxTwo="12"  coef=".3866"/><qTerm  idx="2"  idxOne="10"  idxTwo="14"  coef=".695"/><qTerm  idx="2"  idxOne="10"  idxTwo="15"  coef="-.29"/><qTerm  idx="2"  idxOne="10"  idxTwo="19"  coef=".9495"/><qTerm  idx="2"  idxOne="11"  idxTwo="11"  coef="-.3459"/><qTerm  idx="2"  idxOne="11"  idxTwo="14"  coef="-.1863"/><qTerm  idx="2"  idxOne="11"  idxTwo="19"  coef="8.91e-2"/><qTerm  idx="2"  idxOne="12"  idxTwo="12"  coef=".9144"/><qTerm  idx="2"  idxOne="12"  idxTwo="13"  coef="-.9632"/><qTerm  idx="2"  idxOne="12"  idxTwo="15"  coef=".7519"/><qTerm  idx="2"  idxOne="12"  idxTwo="16"  coef="-.3963"/><qTerm  idx="2"  idxOne="12"  idxTwo="17"  coef="-4.91e-2"/><qTerm  idx="2"  idxOne="13"  idxTwo="15"  coef=".9241"/><qTerm  idx="2"  idxOne="13"  idxTwo="19"  coef="-.2807"/><qTerm  idx="2"  idxOne="14"  idxTwo="14"  coef="-.6359"/><qTerm  idx="2"  idxOne="14"  idxTwo="16"  coef=".9124"/><qTerm  idx="2"  idxOne="14"  idxTwo="17"  coef=".6008"/><qTerm  idx="2"  idxOne="14"  idxTwo="18"  coef=".9007"/><qTerm  idx="2"  idxOne="15"  idxTwo="15"  coef="-.6731"/><qTerm  idx="2"  idxOne="15"  idxTwo="16"  coef="-.3894"/><qTerm  idx="2"  idxOne="16"  idxTwo="16"  coef="-.2257"/><qTerm  idx="2"  idxOne="16"  idxTwo="19"  coef="-.7549"/><qTerm  idx="2"  idxOne="17"  idxTwo="18"  coef=".1911"/><qTerm  idx="2"  idxOne="17"  idxTwo="19"  coef=".9663"/><qTerm  idx="3"  idxOne="0"  idxTwo="0"  coef="-.7466"/><qTerm  idx="3"  idxOne="0"  idxTwo="3"  coef=".6114"/><qTerm  idx="3"  idxOne="0"  idxTwo="5"  coef="-9.86e-2"/><qTerm  idx="3"  idxOne="0"  idxTwo="7"  coef="-.6401"/><qTerm  idx="3"  idxOne="0"  idxTwo="8"  coef=".5109"/><qTerm  idx="3"  idxOne="0"  idxTwo="11"  coef="-.3975"/><qTerm  idx="3"  idxOne="0"  idxTwo="13"  coef=".9224"/><qTerm  idx="3"  idxOne="0"  idxTwo="14"  coef="-.1887"/><qTerm  idx="3"  idxOne="0"  idxTwo="16"  coef=".3296"/><qTerm  idx="3"  idxOne="0"  idxTwo="18"  coef="-.6068"/><qTerm  idx="3"  idxOne="0"  idxTwo="19"  coef=".3322"/><qTerm  idx="3"  idxOne="1"  idxTwo="2"  coef=".3751"/><qTerm  idx="3"  idxOne="1"  idxTwo="3"  coef=".9182"/><qTerm  idx="3"  idxOne="1"  idxTwo="5"  coef=".7991"/><qTerm  idx="3"  idxOne="1"  idxTwo="9"  coef="-.7129"/><qTerm  idx="3"  idxOne="1"  idxTwo="10"  coef="5.14e-2"/><qTerm  idx="3"  idxOne="1"  idxTwo="12"  coef="-4.96e-2"/><qTerm  idx="3"  idxOne="1"  idxTwo="13"  coef=".1102"/><qTerm  idx="3"  idxOne="1"  idxTwo="15"  coef="-.2869"/><qTerm  idx="3"  idxOne="1"  idxTwo="17"  coef="-.9206"/><qTerm  idx="3"  idxOne="1"  idxTwo="18"  coef=".4177"/><qTerm  idx="3"  idxOne="2"  idxTwo="2"  coef=".2739"/><qTerm  idx="3"  idxOne="2"  idxTwo="4"  coef=".2746"/><qTerm  idx="3"  idxOne="2"  idxTwo="5"  coef=".1927"/><qTerm  idx="3"  idxOne="2"  idxTwo="8"  coef=".5994"/><qTerm  idx="3"  idxOne="2"  idxTwo="10"  coef=".4533"/><qTerm  idx="3"  idxOne="2"  idxTwo="15"  coef="-.2373"/><qTerm  idx="3"  idxOne="2"  idxTwo="16"  coef="-.8223"/><qTerm  idx="3"  idxOne="2"  idxTwo="19"  coef=".7372"/><qTerm  idx="3"  idxOne="3"  idxTwo="3"  coef="-.2406"/><qTerm  idx="3"  idxOne="3"  idxTwo="5"  coef="-9.16e-2"/><qTerm  idx="3"  idxOne="3"  idxTwo="9"  coef=".2571"/><qTerm  idx="3"  idxOne="3"  idxTwo="13"  coef="5.91e-2"/><qTerm  idx="3"  idxOne="3"  idxTwo="14"  coef=".7816"/><qTerm  idx="3"  idxOne="3"  idxTwo="15"  coef=".1587"/><qTerm  idx="3"  idxOne="3"  idxTwo="16"  coef=".2114"/><qTerm  idx="3"  idxOne="3"  idxTwo="17"  coef=".2091"/><qTerm  idx="3"  idxOne="3"  idxTwo="18"  coef="-.8053"/><qTerm  idx="3"  idxOne="3"  idxTwo="19"  coef=".8965"/><qTerm  idx="3"  idxOne="4"  idxTwo="4"  coef=".761"/><qTerm  idx="3"  idxOne="4"  idxTwo="5"  coef="-.1055"/><qTerm  idx="3"  idxOne="4"  idxTwo="7"  coef=".1688"/><qTerm  idx="3"  idxOne="4"  idxTwo="11"  coef="7.46e-2"/><qTerm  idx="3"  idxOne="4"  idxTwo="12"  coef=".1599"/><qTerm  idx="3"  idxOne="4"  idxTwo="13"  coef="2.32e-2"/><qTerm  idx="3"  idxOne="4"  idxTwo="16"  coef="-.2367"/><qTerm  idx="3"  idxOne="4"  idxTwo="19"  coef=".2952"/><qTerm  idx="3"  idxOne="5"  idxTwo="5"  coef="-.9825"/><qTerm  idx="3"  idxOne="5"  idxTwo="9"  coef=".6823"/><qTerm  idx="3"  idxOne="5"  idxTwo="10"  coef="-.9401"/><qTerm  idx="3"  idxOne="5"  idxTwo="11"  coef=".2494"/><qTerm  idx="3"  idxOne="5"  idxTwo="12"  coef="-.3754"/><qTerm  idx="3"  idxOne="5"  idxTwo="15"  coef=".4822"/><qTerm  idx="3"  idxOne="5"  idxTwo="18"  coef=".1921"/><qTerm  idx="3"  idxOne="6"  idxTwo="7"  coef=".6205"/><qTerm  idx="3"  idxOne="6"  idxTwo="9"  coef="-.2894"/><qTerm  idx="3"  idxOne="6"  idxTwo="12"  coef=".2471"/><qTerm  idx="3"  idxOne="6"  idxTwo="13"  coef=".1924"/><qTerm  idx="3"  idxOne="6"  idxTwo="14"  coef="-3.08e-2"/><qTerm  idx="3"  idxOne="6"  idxTwo="15"  coef="-.1908"/><qTerm  idx="3"  idxOne="6"  idxTwo="16"  coef="-.5095"/><qTerm  idx="3"  idxOne="6"  idxTwo="18"  coef="-.4513"/><qTerm  idx="3"  idxOne="6"  idxTwo="19"  coef="-.5954"/><qTerm  idx="3"  idxOne="7"  idxTwo="10"  coef="-.1586"/><qTerm  idx="3"  idxOne="7"  idxTwo="11"  coef="-.192"/><qTerm  idx="3"  idxOne="7"  idxTwo="13"  coef=".8229"/><qTerm  idx="3"  idxOne="7"  idxTwo="15"  coef=".5559"/><qTerm  idx="3"  idxOne="7"  idxTwo="16"  coef=".3626"/><qTerm  idx="3"  idxOne="7"  idxTwo="17"  coef="-.8884"/><qTerm  idx="3"  idxOne="7"  idxTwo="18"  coef="-.1425"/><qTerm  idx="3"  idxOne="7"  idxTwo="19"  coef=".9635"/><qTerm  idx="3"  idxOne="8"  idxTwo="8"  coef="-.1137"/><qTerm  idx="3"  idxOne="8"  idxTwo="10"  coef="-.8752"/><qTerm  idx="3"  idxOne="8"  idxTwo="15"  coef=".6729"/><qTerm  idx="3"  idxOne="8"  idxTwo="16"  coef=".752"/><qTerm  idx="3"  idxOne="8"  idxTwo="19"  coef=".7575"/><qTerm  idx="3"  idxOne="9"  idxTwo="12"  coef="-5.96e-2"/><qTerm  idx="3"  idxOne="9"  idxTwo="14"  coef=".6569"/><qTerm  idx="3"  idxOne="9"  idxTwo="15"  coef="-.5916"/><qTerm  idx="3"  idxOne="9"  idxTwo="16"  coef=".612"/><qTerm  idx="3"  idxOne="9"  idxTwo="17"  coef=".1003"/><qTerm  idx="3"  idxOne="9"  idxTwo="19"  coef="-.9562"/><qTerm  idx="3"  idxOne="10"  idxTwo="10"  coef=".1344"/><qTerm  idx="3"  idxOne="10"  idxTwo="12"  coef=".2901"/><qTerm  idx="3"  idxOne="10"  idxTwo="13"  coef="-.5136"/><qTerm  idx="3"  idxOne="10"  idxTwo="16"  coef="3.87e-2"/><qTerm  idx="3"  idxOne="10"  idxTwo="17"  coef="-.6076"/><qTerm  idx="3"  idxOne="10"  idxTwo="18"  coef="-.8728"/><qTerm  idx="3"  idxOne="10"  idxTwo="19"  coef="6.86e-2"/><qTerm  idx="3"  idxOne="11"  idxTwo="11"  coef="-.9648"/><qTerm  idx="3"  idxOne="11"  idxTwo="19"  coef=".4918"/><qTerm  idx="3"  idxOne="12"  idxTwo="12"  coef=".1907"/><qTerm  idx="3"  idxOne="12"  idxTwo="14"  coef=".876"/><qTerm  idx="3"  idxOne="12"  idxTwo="17"  coef="-.1934"/><qTerm  idx="3"  idxOne="13"  idxTwo="13"  coef=".5408"/><qTerm  idx="3"  idxOne="13"  idxTwo="15"  coef=".8822"/><qTerm  idx="3"  idxOne="13"  idxTwo="17"  coef=".6712"/><qTerm  idx="3"  idxOne="14"  idxTwo="15"  coef=".5809"/><qTerm  idx="3"  idxOne="14"  idxTwo="18"  coef="-.1352"/><qTerm  idx="3"  idxOne="14"  idxTwo="19"  coef="3.92e-2"/><qTerm  idx="3"  idxOne="15"  idxTwo="15"  coef="-.7098"/><qTerm  idx="3"  idxOne="15"  idxTwo="17"  coef="-.6195"/><qTerm  idx="3"  idxOne="15"  idxTwo="18"  coef="-.8108"/><qTerm  idx="3"  idxOne="15"  idxTwo="19"  coef="-.8606"/><qTerm  idx="3"  idxOne="16"  idxTwo="16"  coef="-.5747"/><qTerm  idx="3"  idxOne="16"  idxTwo="17"  coef="-.9661"/><qTerm  idx="3"  idxOne="16"  idxTwo="18"  coef="-.8677"/><qTerm  idx="3"  idxOne="16"  idxTwo="19"  coef=".3344"/><qTerm  idx="3"  idxOne="18"  idxTwo="19"  coef=".4234"/><qTerm  idx="3"  idxOne="19"  idxTwo="19"  coef=".5472"/></quadraticCoefficients></instanceData></osil>
